GLPSOL--GLPK LP/MIP Solver 5.0
Parameter(s) specified in the command line:
 --lp ../modeles/4_254.lp --log 4_254.log
Reading problem data from '../modeles/4_254.lp'...
1033 rows, 2040 columns, 7124 non-zeros
1016 integer variables, all of which are binary
3083 lines were read
GLPK Integer Optimizer 5.0
1033 rows, 2040 columns, 7124 non-zeros
1016 integer variables, all of which are binary
Preprocessing...
1000 constraint coefficient(s) were reduced
1033 rows, 2036 columns, 7120 non-zeros
1016 integer variables, all of which are binary
Scaling...
 A: min|aij| =  2.480e-04  max|aij| =  4.000e+00  ratio =  1.613e+04
GM: min|aij| =  8.874e-02  max|aij| =  1.127e+01  ratio =  1.270e+02
EQ: min|aij| =  7.874e-03  max|aij| =  1.000e+00  ratio =  1.270e+02
2N: min|aij| =  7.812e-03  max|aij| =  1.750e+00  ratio =  2.240e+02
Constructing initial basis...
Size of triangular part is 1033
Solving LP relaxation...
GLPK Simplex Optimizer 5.0
1033 rows, 2036 columns, 7120 non-zeros
      0: obj =   8.000000000e+00 inf =   1.950e+01 (9)
     67: obj =   4.102409078e-01 inf =   0.000e+00 (0)
*   240: obj =  -1.999812523e+00 inf =   2.251e-15 (0)
OPTIMAL LP SOLUTION FOUND
Integer optimization begins...
Long-step dual simplex will be used
+   240: mip =     not found yet >=              -inf        (1; 0)
+   525: >>>>>  -1.999812523e+00 >=  -1.999812523e+00   0.0% (285; 0)
+   525: mip =  -1.999812523e+00 >=     tree is empty   0.0% (0; 569)
INTEGER OPTIMAL SOLUTION FOUND
Time used:   0.4 secs
Memory used: 3.0 Mb (3166258 bytes)
